(declare-fun b1506 () (_ FloatingPoint 11 53))
(declare-fun b1525 () (_ FloatingPoint 11 53))
(declare-fun b1509 () (_ FloatingPoint 8 24))
(declare-fun b1487 () (_ FloatingPoint 11 53))
(declare-fun b1620 () (_ FloatingPoint 11 53))
(declare-fun b1623 () (_ FloatingPoint 8 24))
(declare-fun b2069 () (_ FloatingPoint 8 24))
(declare-fun b2172 () (_ FloatingPoint 8 24))
(declare-fun b1775 () (_ FloatingPoint 8 24))
(declare-fun b1880 () (_ FloatingPoint 8 24))
(declare-fun b1482 () (_ FloatingPoint 11 53))
(declare-fun b1816 () (_ FloatingPoint 8 24))
(declare-fun b1639 () (_ FloatingPoint 11 53))
(declare-fun b1859 () (_ FloatingPoint 8 24))
(declare-fun b1582 () (_ FloatingPoint 11 53))
(declare-fun b818 () (_ FloatingPoint 11 53))
(declare-fun b1838 () (_ FloatingPoint 8 24))
(declare-fun b1661 () (_ FloatingPoint 8 24))
(declare-fun b1715 () (_ FloatingPoint 11 53))
(declare-fun b1718 () (_ FloatingPoint 8 24))
(declare-fun b205 () (_ FloatingPoint 8 24))
(declare-fun b2006 () (_ FloatingPoint 8 24))
(declare-fun b2090 () (_ FloatingPoint 8 24))
(declare-fun b1563 () (_ FloatingPoint 11 53))
(declare-fun b1585 () (_ FloatingPoint 8 24))
(declare-fun b221 () (_ FloatingPoint 11 53))
(declare-fun b1477 () (_ FloatingPoint 8 24))
(declare-fun b1734 () (_ FloatingPoint 11 53))
(declare-fun b1791 () (_ FloatingPoint 11 53))
(declare-fun b212 () (_ FloatingPoint 8 24))
(declare-fun b1474 () (_ FloatingPoint 11 53))
(declare-fun b1490 () (_ FloatingPoint 8 24))
(declare-fun b1943 () (_ FloatingPoint 8 24))
(declare-fun b1985 () (_ FloatingPoint 8 24))
(declare-fun b1566 () (_ FloatingPoint 8 24))
(declare-fun b210 () (_ FloatingPoint 11 53))
(declare-fun b1604 () (_ FloatingPoint 8 24))
(declare-fun b1772 () (_ FloatingPoint 11 53))
(declare-fun b1547 () (_ FloatingPoint 8 24))
(declare-fun b1677 () (_ FloatingPoint 11 53))
(declare-fun b1922 () (_ FloatingPoint 8 24))
(declare-fun b1901 () (_ FloatingPoint 8 24))
(declare-fun b1658 () (_ FloatingPoint 11 53))
(declare-fun b2153 () (_ FloatingPoint 8 24))
(declare-fun b1699 () (_ FloatingPoint 8 24))
(declare-fun b207 () (_ FloatingPoint 8 24))
(declare-fun b2132 () (_ FloatingPoint 8 24))
(declare-fun b2048 () (_ FloatingPoint 8 24))
(declare-fun b1642 () (_ FloatingPoint 8 24))
(declare-fun b1544 () (_ FloatingPoint 11 53))
(declare-fun b1964 () (_ FloatingPoint 8 24))
(declare-fun b2181 () (_ FloatingPoint 8 24))
(declare-fun b1528 () (_ FloatingPoint 8 24))
(declare-fun b1680 () (_ FloatingPoint 8 24))
(declare-fun b2027 () (_ FloatingPoint 8 24))
(declare-fun b1696 () (_ FloatingPoint 11 53))
(declare-fun b1794 () (_ FloatingPoint 8 24))
(declare-fun b832 () (_ FloatingPoint 8 24))
(declare-fun b1601 () (_ FloatingPoint 11 53))
(declare-fun b1753 () (_ FloatingPoint 11 53))
(declare-fun b1756 () (_ FloatingPoint 8 24))
(declare-fun b2111 () (_ FloatingPoint 8 24))
(declare-fun b1737 () (_ FloatingPoint 8 24))
(assert (let ((.def_11 (fp.div RNE b205 b207)))
(let ((.def_12 ((_ to_fp 11 53) RNE .def_11)))
(let ((.def_14 (fp.mul RNE .def_12 b221)))
(let ((.def_15 (fp.mul RNE .def_11 .def_11)))
(let ((.def_16 (fp.neg .def_15)))
(let ((.def_17 (fp.add RNE b205 .def_16)))
(let ((.def_18 ((_ to_fp 11 53) RNE .def_17)))
(let ((.def_19 (fp.div RNE .def_18 .def_14)))
(let ((.def_20 ((_ to_fp 8 24) RNE .def_19)))
(let ((.def_21 (fp.add RNE .def_11 .def_20)))
(let ((.def_22 (fp.mul RNE .def_21 .def_21)))
(let ((.def_23 (fp.neg .def_22)))
(let ((.def_24 (fp.add RNE b205 .def_23)))
(let ((.def_25 ((_ to_fp 11 53) RNE .def_24)))
(let ((.def_26 ((_ to_fp 8 24) RNE .def_25)))
(let ((.def_770 (fp.neg .def_26)))
(let ((.def_771 (= b2181 .def_770)))
(let ((.def_767 (fp.leq b212 .def_26)))
(let ((.def_768 (not .def_767)))
(let ((.def_30 ((_ to_fp 11 53) RNE .def_21)))
(let ((.def_31 (fp.mul RNE b221 .def_30)))
(let ((.def_32 (fp.div RNE .def_25 .def_31)))
(let ((.def_33 ((_ to_fp 8 24) RNE .def_32)))
(let ((.def_34 (fp.add RNE .def_21 .def_33)))
(let ((.def_35 (fp.mul RNE .def_34 .def_34)))
(let ((.def_36 (fp.neg .def_35)))
(let ((.def_37 (fp.add RNE b205 .def_36)))
(let ((.def_38 ((_ to_fp 11 53) RNE .def_37)))
(let ((.def_39 ((_ to_fp 8 24) RNE .def_38)))
(let ((.def_763 (fp.neg .def_39)))
(let ((.def_764 (= b2172 .def_763)))
(let ((.def_760 (fp.leq b212 .def_39)))
(let ((.def_761 (not .def_760)))
(let ((.def_756 ((_ to_fp 11 53) RNE b2172)))
(let ((.def_757 (fp.leq .def_756 b210)))
(let ((.def_758 (not .def_757)))
(let ((.def_44 ((_ to_fp 11 53) RNE b1490)))
(let ((.def_45 (fp.mul RNE b221 .def_44)))
(let ((.def_46 (fp.mul RNE b1490 b1490)))
(let ((.def_47 (fp.neg .def_46)))
(let ((.def_48 (fp.add RNE b205 .def_47)))
(let ((.def_49 ((_ to_fp 11 53) RNE .def_48)))
(let ((.def_50 (fp.div RNE .def_49 .def_45)))
(let ((.def_51 ((_ to_fp 8 24) RNE .def_50)))
(let ((.def_52 (fp.add RNE b1490 .def_51)))
(let ((.def_53 (fp.mul RNE .def_52 .def_52)))
(let ((.def_54 (fp.neg .def_53)))
(let ((.def_55 (fp.add RNE b205 .def_54)))
(let ((.def_56 ((_ to_fp 11 53) RNE .def_55)))
(let ((.def_57 ((_ to_fp 8 24) RNE .def_56)))
(let ((.def_752 (fp.neg .def_57)))
(let ((.def_753 (= b2153 .def_752)))
(let ((.def_749 (fp.leq b212 .def_57)))
(let ((.def_750 (not .def_749)))
(let ((.def_745 ((_ to_fp 11 53) RNE b2153)))
(let ((.def_746 (fp.leq .def_745 b210)))
(let ((.def_747 (not .def_746)))
(let ((.def_62 ((_ to_fp 11 53) RNE b1509)))
(let ((.def_63 (fp.mul RNE b221 .def_62)))
(let ((.def_64 (fp.mul RNE b1509 b1509)))
(let ((.def_65 (fp.neg .def_64)))
(let ((.def_66 (fp.add RNE b205 .def_65)))
(let ((.def_67 ((_ to_fp 11 53) RNE .def_66)))
(let ((.def_68 (fp.div RNE .def_67 .def_63)))
(let ((.def_69 ((_ to_fp 8 24) RNE .def_68)))
(let ((.def_70 (fp.add RNE b1509 .def_69)))
(let ((.def_71 (fp.mul RNE .def_70 .def_70)))
(let ((.def_72 (fp.neg .def_71)))
(let ((.def_73 (fp.add RNE b205 .def_72)))
(let ((.def_74 ((_ to_fp 11 53) RNE .def_73)))
(let ((.def_75 ((_ to_fp 8 24) RNE .def_74)))
(let ((.def_741 (fp.neg .def_75)))
(let ((.def_742 (= b2132 .def_741)))
(let ((.def_738 (fp.leq b212 .def_75)))
(let ((.def_739 (not .def_738)))
(let ((.def_734 ((_ to_fp 11 53) RNE b2132)))
(let ((.def_735 (fp.leq .def_734 b210)))
(let ((.def_736 (not .def_735)))
(let ((.def_80 ((_ to_fp 11 53) RNE b1528)))
(let ((.def_81 (fp.mul RNE b221 .def_80)))
(let ((.def_82 (fp.mul RNE b1528 b1528)))
(let ((.def_83 (fp.neg .def_82)))
(let ((.def_84 (fp.add RNE b205 .def_83)))
(let ((.def_85 ((_ to_fp 11 53) RNE .def_84)))
(let ((.def_86 (fp.div RNE .def_85 .def_81)))
(let ((.def_87 ((_ to_fp 8 24) RNE .def_86)))
(let ((.def_88 (fp.add RNE b1528 .def_87)))
(let ((.def_89 (fp.mul RNE .def_88 .def_88)))
(let ((.def_90 (fp.neg .def_89)))
(let ((.def_91 (fp.add RNE b205 .def_90)))
(let ((.def_92 ((_ to_fp 11 53) RNE .def_91)))
(let ((.def_93 ((_ to_fp 8 24) RNE .def_92)))
(let ((.def_730 (fp.neg .def_93)))
(let ((.def_731 (= b2111 .def_730)))
(let ((.def_727 (fp.leq b212 .def_93)))
(let ((.def_728 (not .def_727)))
(let ((.def_723 ((_ to_fp 11 53) RNE b2111)))
(let ((.def_724 (fp.leq .def_723 b210)))
(let ((.def_725 (not .def_724)))
(let ((.def_98 ((_ to_fp 11 53) RNE b1547)))
(let ((.def_99 (fp.mul RNE b221 .def_98)))
(let ((.def_100 (fp.mul RNE b1547 b1547)))
(let ((.def_101 (fp.neg .def_100)))
(let ((.def_102 (fp.add RNE b205 .def_101)))
(let ((.def_103 ((_ to_fp 11 53) RNE .def_102)))
(let ((.def_104 (fp.div RNE .def_103 .def_99)))
(let ((.def_105 ((_ to_fp 8 24) RNE .def_104)))
(let ((.def_106 (fp.add RNE b1547 .def_105)))
(let ((.def_107 (fp.mul RNE .def_106 .def_106)))
(let ((.def_108 (fp.neg .def_107)))
(let ((.def_109 (fp.add RNE b205 .def_108)))
(let ((.def_110 ((_ to_fp 11 53) RNE .def_109)))
(let ((.def_111 ((_ to_fp 8 24) RNE .def_110)))
(let ((.def_719 (fp.neg .def_111)))
(let ((.def_720 (= b2090 .def_719)))
(let ((.def_716 (fp.leq b212 .def_111)))
(let ((.def_717 (not .def_716)))
(let ((.def_712 ((_ to_fp 11 53) RNE b2090)))
(let ((.def_713 (fp.leq .def_712 b210)))
(let ((.def_714 (not .def_713)))
(let ((.def_116 ((_ to_fp 11 53) RNE b1566)))
(let ((.def_117 (fp.mul RNE b221 .def_116)))
(let ((.def_118 (fp.mul RNE b1566 b1566)))
(let ((.def_119 (fp.neg .def_118)))
(let ((.def_120 (fp.add RNE b205 .def_119)))
(let ((.def_121 ((_ to_fp 11 53) RNE .def_120)))
(let ((.def_122 (fp.div RNE .def_121 .def_117)))
(let ((.def_123 ((_ to_fp 8 24) RNE .def_122)))
(let ((.def_124 (fp.add RNE b1566 .def_123)))
(let ((.def_125 (fp.mul RNE .def_124 .def_124)))
(let ((.def_126 (fp.neg .def_125)))
(let ((.def_127 (fp.add RNE b205 .def_126)))
(let ((.def_128 ((_ to_fp 11 53) RNE .def_127)))
(let ((.def_129 ((_ to_fp 8 24) RNE .def_128)))
(let ((.def_708 (fp.neg .def_129)))
(let ((.def_709 (= b2069 .def_708)))
(let ((.def_705 (fp.leq b212 .def_129)))
(let ((.def_706 (not .def_705)))
(let ((.def_701 ((_ to_fp 11 53) RNE b2069)))
(let ((.def_702 (fp.leq .def_701 b210)))
(let ((.def_703 (not .def_702)))
(let ((.def_134 ((_ to_fp 11 53) RNE b1585)))
(let ((.def_135 (fp.mul RNE b221 .def_134)))
(let ((.def_136 (fp.mul RNE b1585 b1585)))
(let ((.def_137 (fp.neg .def_136)))
(let ((.def_138 (fp.add RNE b205 .def_137)))
(let ((.def_139 ((_ to_fp 11 53) RNE .def_138)))
(let ((.def_140 (fp.div RNE .def_139 .def_135)))
(let ((.def_141 ((_ to_fp 8 24) RNE .def_140)))
(let ((.def_142 (fp.add RNE b1585 .def_141)))
(let ((.def_143 (fp.mul RNE .def_142 .def_142)))
(let ((.def_144 (fp.neg .def_143)))
(let ((.def_145 (fp.add RNE b205 .def_144)))
(let ((.def_146 ((_ to_fp 11 53) RNE .def_145)))
(let ((.def_147 ((_ to_fp 8 24) RNE .def_146)))
(let ((.def_697 (fp.neg .def_147)))
(let ((.def_698 (= b2048 .def_697)))
(let ((.def_694 (fp.leq b212 .def_147)))
(let ((.def_695 (not .def_694)))
(let ((.def_690 ((_ to_fp 11 53) RNE b2048)))
(let ((.def_691 (fp.leq .def_690 b210)))
(let ((.def_692 (not .def_691)))
(let ((.def_152 ((_ to_fp 11 53) RNE b1604)))
(let ((.def_153 (fp.mul RNE b221 .def_152)))
(let ((.def_154 (fp.mul RNE b1604 b1604)))
(let ((.def_155 (fp.neg .def_154)))
(let ((.def_156 (fp.add RNE b205 .def_155)))
(let ((.def_157 ((_ to_fp 11 53) RNE .def_156)))
(let ((.def_158 (fp.div RNE .def_157 .def_153)))
(let ((.def_159 ((_ to_fp 8 24) RNE .def_158)))
(let ((.def_160 (fp.add RNE b1604 .def_159)))
(let ((.def_161 (fp.mul RNE .def_160 .def_160)))
(let ((.def_162 (fp.neg .def_161)))
(let ((.def_163 (fp.add RNE b205 .def_162)))
(let ((.def_164 ((_ to_fp 11 53) RNE .def_163)))
(let ((.def_165 ((_ to_fp 8 24) RNE .def_164)))
(let ((.def_686 (fp.neg .def_165)))
(let ((.def_687 (= b2027 .def_686)))
(let ((.def_683 (fp.leq b212 .def_165)))
(let ((.def_684 (not .def_683)))
(let ((.def_679 ((_ to_fp 11 53) RNE b2027)))
(let ((.def_680 (fp.leq .def_679 b210)))
(let ((.def_681 (not .def_680)))
(let ((.def_170 ((_ to_fp 11 53) RNE b1623)))
(let ((.def_171 (fp.mul RNE b221 .def_170)))
(let ((.def_172 (fp.mul RNE b1623 b1623)))
(let ((.def_173 (fp.neg .def_172)))
(let ((.def_174 (fp.add RNE b205 .def_173)))
(let ((.def_175 ((_ to_fp 11 53) RNE .def_174)))
(let ((.def_176 (fp.div RNE .def_175 .def_171)))
(let ((.def_177 ((_ to_fp 8 24) RNE .def_176)))
(let ((.def_178 (fp.add RNE b1623 .def_177)))
(let ((.def_179 (fp.mul RNE .def_178 .def_178)))
(let ((.def_180 (fp.neg .def_179)))
(let ((.def_181 (fp.add RNE b205 .def_180)))
(let ((.def_182 ((_ to_fp 11 53) RNE .def_181)))
(let ((.def_183 ((_ to_fp 8 24) RNE .def_182)))
(let ((.def_675 (fp.neg .def_183)))
(let ((.def_676 (= b2006 .def_675)))
(let ((.def_672 (fp.leq b212 .def_183)))
(let ((.def_673 (not .def_672)))
(let ((.def_668 ((_ to_fp 11 53) RNE b2006)))
(let ((.def_669 (fp.leq .def_668 b210)))
(let ((.def_670 (not .def_669)))
(let ((.def_188 ((_ to_fp 11 53) RNE b1642)))
(let ((.def_189 (fp.mul RNE b221 .def_188)))
(let ((.def_190 (fp.mul RNE b1642 b1642)))
(let ((.def_191 (fp.neg .def_190)))
(let ((.def_192 (fp.add RNE b205 .def_191)))
(let ((.def_193 ((_ to_fp 11 53) RNE .def_192)))
(let ((.def_194 (fp.div RNE .def_193 .def_189)))
(let ((.def_195 ((_ to_fp 8 24) RNE .def_194)))
(let ((.def_196 (fp.add RNE b1642 .def_195)))
(let ((.def_197 (fp.mul RNE .def_196 .def_196)))
(let ((.def_198 (fp.neg .def_197)))
(let ((.def_199 (fp.add RNE b205 .def_198)))
(let ((.def_200 ((_ to_fp 11 53) RNE .def_199)))
(let ((.def_201 ((_ to_fp 8 24) RNE .def_200)))
(let ((.def_664 (fp.neg .def_201)))
(let ((.def_665 (= b1985 .def_664)))
(let ((.def_661 (fp.leq b212 .def_201)))
(let ((.def_662 (not .def_661)))
(let ((.def_657 ((_ to_fp 11 53) RNE b1985)))
(let ((.def_658 (fp.leq .def_657 b210)))
(let ((.def_659 (not .def_658)))
(let ((.def_206 ((_ to_fp 11 53) RNE b1661)))
(let ((.def_207 (fp.mul RNE b221 .def_206)))
(let ((.def_208 (fp.mul RNE b1661 b1661)))
(let ((.def_209 (fp.neg .def_208)))
(let ((.def_210 (fp.add RNE b205 .def_209)))
(let ((.def_211 ((_ to_fp 11 53) RNE .def_210)))
(let ((.def_212 (fp.div RNE .def_211 .def_207)))
(let ((.def_213 ((_ to_fp 8 24) RNE .def_212)))
(let ((.def_214 (fp.add RNE b1661 .def_213)))
(let ((.def_215 (fp.mul RNE .def_214 .def_214)))
(let ((.def_216 (fp.neg .def_215)))
(let ((.def_217 (fp.add RNE b205 .def_216)))
(let ((.def_218 ((_ to_fp 11 53) RNE .def_217)))
(let ((.def_219 ((_ to_fp 8 24) RNE .def_218)))
(let ((.def_653 (fp.neg .def_219)))
(let ((.def_654 (= b1964 .def_653)))
(let ((.def_650 (fp.leq b212 .def_219)))
(let ((.def_651 (not .def_650)))
(let ((.def_646 ((_ to_fp 11 53) RNE b1964)))
(let ((.def_647 (fp.leq .def_646 b210)))
(let ((.def_648 (not .def_647)))
(let ((.def_224 ((_ to_fp 11 53) RNE b1680)))
(let ((.def_225 (fp.mul RNE b221 .def_224)))
(let ((.def_226 (fp.mul RNE b1680 b1680)))
(let ((.def_227 (fp.neg .def_226)))
(let ((.def_228 (fp.add RNE b205 .def_227)))
(let ((.def_229 ((_ to_fp 11 53) RNE .def_228)))
(let ((.def_230 (fp.div RNE .def_229 .def_225)))
(let ((.def_231 ((_ to_fp 8 24) RNE .def_230)))
(let ((.def_232 (fp.add RNE b1680 .def_231)))
(let ((.def_233 (fp.mul RNE .def_232 .def_232)))
(let ((.def_234 (fp.neg .def_233)))
(let ((.def_235 (fp.add RNE b205 .def_234)))
(let ((.def_236 ((_ to_fp 11 53) RNE .def_235)))
(let ((.def_237 ((_ to_fp 8 24) RNE .def_236)))
(let ((.def_642 (fp.neg .def_237)))
(let ((.def_643 (= b1943 .def_642)))
(let ((.def_639 (fp.leq b212 .def_237)))
(let ((.def_640 (not .def_639)))
(let ((.def_635 ((_ to_fp 11 53) RNE b1943)))
(let ((.def_636 (fp.leq .def_635 b210)))
(let ((.def_637 (not .def_636)))
(let ((.def_242 ((_ to_fp 11 53) RNE b1699)))
(let ((.def_243 (fp.mul RNE b221 .def_242)))
(let ((.def_244 (fp.mul RNE b1699 b1699)))
(let ((.def_245 (fp.neg .def_244)))
(let ((.def_246 (fp.add RNE b205 .def_245)))
(let ((.def_247 ((_ to_fp 11 53) RNE .def_246)))
(let ((.def_248 (fp.div RNE .def_247 .def_243)))
(let ((.def_249 ((_ to_fp 8 24) RNE .def_248)))
(let ((.def_250 (fp.add RNE b1699 .def_249)))
(let ((.def_251 (fp.mul RNE .def_250 .def_250)))
(let ((.def_252 (fp.neg .def_251)))
(let ((.def_253 (fp.add RNE b205 .def_252)))
(let ((.def_254 ((_ to_fp 11 53) RNE .def_253)))
(let ((.def_255 ((_ to_fp 8 24) RNE .def_254)))
(let ((.def_631 (fp.neg .def_255)))
(let ((.def_632 (= b1922 .def_631)))
(let ((.def_628 (fp.leq b212 .def_255)))
(let ((.def_629 (not .def_628)))
(let ((.def_624 ((_ to_fp 11 53) RNE b1922)))
(let ((.def_625 (fp.leq .def_624 b210)))
(let ((.def_626 (not .def_625)))
(let ((.def_260 ((_ to_fp 11 53) RNE b1718)))
(let ((.def_261 (fp.mul RNE b221 .def_260)))
(let ((.def_262 (fp.mul RNE b1718 b1718)))
(let ((.def_263 (fp.neg .def_262)))
(let ((.def_264 (fp.add RNE b205 .def_263)))
(let ((.def_265 ((_ to_fp 11 53) RNE .def_264)))
(let ((.def_266 (fp.div RNE .def_265 .def_261)))
(let ((.def_267 ((_ to_fp 8 24) RNE .def_266)))
(let ((.def_268 (fp.add RNE b1718 .def_267)))
(let ((.def_269 (fp.mul RNE .def_268 .def_268)))
(let ((.def_270 (fp.neg .def_269)))
(let ((.def_271 (fp.add RNE b205 .def_270)))
(let ((.def_272 ((_ to_fp 11 53) RNE .def_271)))
(let ((.def_273 ((_ to_fp 8 24) RNE .def_272)))
(let ((.def_620 (fp.neg .def_273)))
(let ((.def_621 (= b1901 .def_620)))
(let ((.def_617 (fp.leq b212 .def_273)))
(let ((.def_618 (not .def_617)))
(let ((.def_613 ((_ to_fp 11 53) RNE b1901)))
(let ((.def_614 (fp.leq .def_613 b210)))
(let ((.def_615 (not .def_614)))
(let ((.def_278 ((_ to_fp 11 53) RNE b1737)))
(let ((.def_279 (fp.mul RNE b221 .def_278)))
(let ((.def_280 (fp.mul RNE b1737 b1737)))
(let ((.def_281 (fp.neg .def_280)))
(let ((.def_282 (fp.add RNE b205 .def_281)))
(let ((.def_283 ((_ to_fp 11 53) RNE .def_282)))
(let ((.def_284 (fp.div RNE .def_283 .def_279)))
(let ((.def_285 ((_ to_fp 8 24) RNE .def_284)))
(let ((.def_286 (fp.add RNE b1737 .def_285)))
(let ((.def_287 (fp.mul RNE .def_286 .def_286)))
(let ((.def_288 (fp.neg .def_287)))
(let ((.def_289 (fp.add RNE b205 .def_288)))
(let ((.def_290 ((_ to_fp 11 53) RNE .def_289)))
(let ((.def_291 ((_ to_fp 8 24) RNE .def_290)))
(let ((.def_609 (fp.neg .def_291)))
(let ((.def_610 (= b1880 .def_609)))
(let ((.def_606 (fp.leq b212 .def_291)))
(let ((.def_607 (not .def_606)))
(let ((.def_602 ((_ to_fp 11 53) RNE b1880)))
(let ((.def_603 (fp.leq .def_602 b210)))
(let ((.def_604 (not .def_603)))
(let ((.def_296 ((_ to_fp 11 53) RNE b1756)))
(let ((.def_297 (fp.mul RNE b221 .def_296)))
(let ((.def_298 (fp.mul RNE b1756 b1756)))
(let ((.def_299 (fp.neg .def_298)))
(let ((.def_300 (fp.add RNE b205 .def_299)))
(let ((.def_301 ((_ to_fp 11 53) RNE .def_300)))
(let ((.def_302 (fp.div RNE .def_301 .def_297)))
(let ((.def_303 ((_ to_fp 8 24) RNE .def_302)))
(let ((.def_304 (fp.add RNE b1756 .def_303)))
(let ((.def_305 (fp.mul RNE .def_304 .def_304)))
(let ((.def_306 (fp.neg .def_305)))
(let ((.def_307 (fp.add RNE b205 .def_306)))
(let ((.def_308 ((_ to_fp 11 53) RNE .def_307)))
(let ((.def_309 ((_ to_fp 8 24) RNE .def_308)))
(let ((.def_598 (fp.neg .def_309)))
(let ((.def_599 (= b1859 .def_598)))
(let ((.def_595 (fp.leq b212 .def_309)))
(let ((.def_596 (not .def_595)))
(let ((.def_591 ((_ to_fp 11 53) RNE b1859)))
(let ((.def_592 (fp.leq .def_591 b210)))
(let ((.def_593 (not .def_592)))
(let ((.def_314 ((_ to_fp 11 53) RNE b1775)))
(let ((.def_315 (fp.mul RNE b221 .def_314)))
(let ((.def_316 (fp.mul RNE b1775 b1775)))
(let ((.def_317 (fp.neg .def_316)))
(let ((.def_318 (fp.add RNE b205 .def_317)))
(let ((.def_319 ((_ to_fp 11 53) RNE .def_318)))
(let ((.def_320 (fp.div RNE .def_319 .def_315)))
(let ((.def_321 ((_ to_fp 8 24) RNE .def_320)))
(let ((.def_322 (fp.add RNE b1775 .def_321)))
(let ((.def_323 (fp.mul RNE .def_322 .def_322)))
(let ((.def_324 (fp.neg .def_323)))
(let ((.def_325 (fp.add RNE b205 .def_324)))
(let ((.def_326 ((_ to_fp 11 53) RNE .def_325)))
(let ((.def_327 ((_ to_fp 8 24) RNE .def_326)))
(let ((.def_587 (fp.neg .def_327)))
(let ((.def_588 (= b1838 .def_587)))
(let ((.def_584 (fp.leq b212 .def_327)))
(let ((.def_585 (not .def_584)))
(let ((.def_580 ((_ to_fp 11 53) RNE b1838)))
(let ((.def_581 (fp.leq .def_580 b210)))
(let ((.def_582 (not .def_581)))
(let ((.def_366 ((_ to_fp 11 53) RNE b1794)))
(let ((.def_367 (fp.mul RNE b221 .def_366)))
(let ((.def_368 (fp.mul RNE b1794 b1794)))
(let ((.def_369 (fp.neg .def_368)))
(let ((.def_370 (fp.add RNE b205 .def_369)))
(let ((.def_371 ((_ to_fp 11 53) RNE .def_370)))
(let ((.def_372 (fp.div RNE .def_371 .def_367)))
(let ((.def_373 ((_ to_fp 8 24) RNE .def_372)))
(let ((.def_374 (fp.add RNE b1794 .def_373)))
(let ((.def_375 (fp.mul RNE .def_374 .def_374)))
(let ((.def_376 (fp.neg .def_375)))
(let ((.def_377 (fp.add RNE b205 .def_376)))
(let ((.def_378 ((_ to_fp 11 53) RNE .def_377)))
(let ((.def_379 ((_ to_fp 8 24) RNE .def_378)))
(let ((.def_559 (fp.neg .def_379)))
(let ((.def_560 (= b1816 .def_559)))
(let ((.def_556 (fp.leq b212 .def_379)))
(let ((.def_557 (not .def_556)))
(let ((.def_553 (= b1474 b1791)))
(let ((.def_550 (fp.eq b205 b212)))
(let ((.def_551 (not .def_550)))
(let ((.def_547 (= b1791 b1772)))
(let ((.def_544 (= b1775 b1794)))
(let ((.def_542 (= b1772 b1753)))
(let ((.def_539 (= b1756 b1775)))
(let ((.def_537 (= b1753 b1734)))
(let ((.def_534 (= b1737 b1756)))
(let ((.def_532 (= b1734 b1715)))
(let ((.def_529 (= b1718 b1737)))
(let ((.def_527 (= b1715 b1696)))
(let ((.def_524 (= b1699 b1718)))
(let ((.def_522 (= b1696 b1677)))
(let ((.def_519 (= b1680 b1699)))
(let ((.def_517 (= b1677 b1658)))
(let ((.def_514 (= b1661 b1680)))
(let ((.def_512 (= b1658 b1639)))
(let ((.def_509 (= b1642 b1661)))
(let ((.def_507 (= b1639 b1620)))
(let ((.def_504 (= b1623 b1642)))
(let ((.def_502 (= b1620 b1601)))
(let ((.def_499 (= b1604 b1623)))
(let ((.def_497 (= b1601 b1582)))
(let ((.def_494 (= b1585 b1604)))
(let ((.def_492 (= b1582 b1563)))
(let ((.def_489 (= b1566 b1585)))
(let ((.def_487 (= b1563 b1544)))
(let ((.def_484 (= b1547 b1566)))
(let ((.def_482 (= b1544 b1525)))
(let ((.def_479 (= b1528 b1547)))
(let ((.def_477 (= b1525 b1506)))
(let ((.def_474 (= b1509 b1528)))
(let ((.def_472 (= b1506 b1487)))
(let ((.def_469 (= b1490 b1509)))
(let ((.def_467 (= b1487 b1482)))
(let ((.def_462 ((_ to_fp 11 53) RNE b2181)))
(let ((.def_464 (fp.leq .def_462 b210)))
(let ((.def_460 (= .def_21 b1490)))
(let ((.def_458 (= .def_25 b1482)))
(let ((.def_441 ((_ to_fp 8 24) RNE b1474)))
(let ((.def_454 (fp.neg .def_441)))
(let ((.def_455 (= b1477 .def_454)))
(let ((.def_451 (fp.leq b212 b205)))
(let ((.def_449 (fp.leq b1477 b832)))
(let ((.def_450 (not .def_449)))
(let ((.def_452 (and .def_450 .def_451)))
(let ((.def_446 (fp.leq b212 .def_441)))
(let ((.def_447 (not .def_446)))
(let ((.def_453 (and .def_447 .def_452)))
(let ((.def_456 (and .def_453 .def_455)))
(let ((.def_443 (= .def_441 b1477)))
(let ((.def_444 (not .def_443)))
(let ((.def_457 (and .def_444 .def_456)))
(let ((.def_459 (and .def_457 .def_458)))
(let ((.def_461 (and .def_459 .def_460)))
(let ((.def_465 (and .def_461 .def_464)))
(let ((.def_439 (= .def_38 b1482)))
(let ((.def_440 (not .def_439)))
(let ((.def_466 (and .def_440 .def_465)))
(let ((.def_468 (and .def_466 .def_467)))
(let ((.def_470 (and .def_468 .def_469)))
(let ((.def_436 (= .def_56 b1487)))
(let ((.def_437 (not .def_436)))
(let ((.def_471 (and .def_437 .def_470)))
(let ((.def_473 (and .def_471 .def_472)))
(let ((.def_475 (and .def_473 .def_474)))
(let ((.def_433 (= .def_74 b1506)))
(let ((.def_434 (not .def_433)))
(let ((.def_476 (and .def_434 .def_475)))
(let ((.def_478 (and .def_476 .def_477)))
(let ((.def_480 (and .def_478 .def_479)))
(let ((.def_430 (= .def_92 b1525)))
(let ((.def_431 (not .def_430)))
(let ((.def_481 (and .def_431 .def_480)))
(let ((.def_483 (and .def_481 .def_482)))
(let ((.def_485 (and .def_483 .def_484)))
(let ((.def_427 (= .def_110 b1544)))
(let ((.def_428 (not .def_427)))
(let ((.def_486 (and .def_428 .def_485)))
(let ((.def_488 (and .def_486 .def_487)))
(let ((.def_490 (and .def_488 .def_489)))
(let ((.def_424 (= .def_128 b1563)))
(let ((.def_425 (not .def_424)))
(let ((.def_491 (and .def_425 .def_490)))
(let ((.def_493 (and .def_491 .def_492)))
(let ((.def_495 (and .def_493 .def_494)))
(let ((.def_421 (= .def_146 b1582)))
(let ((.def_422 (not .def_421)))
(let ((.def_496 (and .def_422 .def_495)))
(let ((.def_498 (and .def_496 .def_497)))
(let ((.def_500 (and .def_498 .def_499)))
(let ((.def_418 (= .def_164 b1601)))
(let ((.def_419 (not .def_418)))
(let ((.def_501 (and .def_419 .def_500)))
(let ((.def_503 (and .def_501 .def_502)))
(let ((.def_505 (and .def_503 .def_504)))
(let ((.def_415 (= .def_182 b1620)))
(let ((.def_416 (not .def_415)))
(let ((.def_506 (and .def_416 .def_505)))
(let ((.def_508 (and .def_506 .def_507)))
(let ((.def_510 (and .def_508 .def_509)))
(let ((.def_412 (= .def_200 b1639)))
(let ((.def_413 (not .def_412)))
(let ((.def_511 (and .def_413 .def_510)))
(let ((.def_513 (and .def_511 .def_512)))
(let ((.def_515 (and .def_513 .def_514)))
(let ((.def_409 (= .def_218 b1658)))
(let ((.def_410 (not .def_409)))
(let ((.def_516 (and .def_410 .def_515)))
(let ((.def_518 (and .def_516 .def_517)))
(let ((.def_520 (and .def_518 .def_519)))
(let ((.def_406 (= .def_236 b1677)))
(let ((.def_407 (not .def_406)))
(let ((.def_521 (and .def_407 .def_520)))
(let ((.def_523 (and .def_521 .def_522)))
(let ((.def_525 (and .def_523 .def_524)))
(let ((.def_403 (= .def_254 b1696)))
(let ((.def_404 (not .def_403)))
(let ((.def_526 (and .def_404 .def_525)))
(let ((.def_528 (and .def_526 .def_527)))
(let ((.def_530 (and .def_528 .def_529)))
(let ((.def_400 (= .def_272 b1715)))
(let ((.def_401 (not .def_400)))
(let ((.def_531 (and .def_401 .def_530)))
(let ((.def_533 (and .def_531 .def_532)))
(let ((.def_535 (and .def_533 .def_534)))
(let ((.def_397 (= .def_290 b1734)))
(let ((.def_398 (not .def_397)))
(let ((.def_536 (and .def_398 .def_535)))
(let ((.def_538 (and .def_536 .def_537)))
(let ((.def_540 (and .def_538 .def_539)))
(let ((.def_394 (= .def_308 b1753)))
(let ((.def_395 (not .def_394)))
(let ((.def_541 (and .def_395 .def_540)))
(let ((.def_543 (and .def_541 .def_542)))
(let ((.def_545 (and .def_543 .def_544)))
(let ((.def_391 (= .def_326 b1772)))
(let ((.def_392 (not .def_391)))
(let ((.def_546 (and .def_392 .def_545)))
(let ((.def_548 (and .def_546 .def_547)))
(let ((.def_388 (= .def_378 b1791)))
(let ((.def_389 (not .def_388)))
(let ((.def_549 (and .def_389 .def_548)))
(let ((.def_552 (and .def_549 .def_551)))
(let ((.def_554 (and .def_552 .def_553)))
(let ((.def_385 (= b1474 b818)))
(let ((.def_386 (not .def_385)))
(let ((.def_555 (and .def_386 .def_554)))
(let ((.def_558 (and .def_555 .def_557)))
(let ((.def_561 (and .def_558 .def_560)))
(let ((.def_381 (= .def_379 b1816)))
(let ((.def_382 (not .def_381)))
(let ((.def_562 (and .def_382 .def_561)))
(let ((.def_364 (= .def_322 b1794)))
(let ((.def_365 (not .def_364)))
(let ((.def_563 (and .def_365 .def_562)))
(let ((.def_361 (= .def_34 b1490)))
(let ((.def_362 (not .def_361)))
(let ((.def_564 (and .def_362 .def_563)))
(let ((.def_359 (= .def_304 b1775)))
(let ((.def_360 (not .def_359)))
(let ((.def_565 (and .def_360 .def_564)))
(let ((.def_357 (= .def_286 b1756)))
(let ((.def_358 (not .def_357)))
(let ((.def_566 (and .def_358 .def_565)))
(let ((.def_355 (= .def_268 b1737)))
(let ((.def_356 (not .def_355)))
(let ((.def_567 (and .def_356 .def_566)))
(let ((.def_353 (= .def_250 b1718)))
(let ((.def_354 (not .def_353)))
(let ((.def_568 (and .def_354 .def_567)))
(let ((.def_351 (= .def_232 b1699)))
(let ((.def_352 (not .def_351)))
(let ((.def_569 (and .def_352 .def_568)))
(let ((.def_349 (= .def_214 b1680)))
(let ((.def_350 (not .def_349)))
(let ((.def_570 (and .def_350 .def_569)))
(let ((.def_347 (= .def_196 b1661)))
(let ((.def_348 (not .def_347)))
(let ((.def_571 (and .def_348 .def_570)))
(let ((.def_345 (= .def_178 b1642)))
(let ((.def_346 (not .def_345)))
(let ((.def_572 (and .def_346 .def_571)))
(let ((.def_343 (= .def_160 b1623)))
(let ((.def_344 (not .def_343)))
(let ((.def_573 (and .def_344 .def_572)))
(let ((.def_341 (= .def_142 b1604)))
(let ((.def_342 (not .def_341)))
(let ((.def_574 (and .def_342 .def_573)))
(let ((.def_339 (= .def_124 b1585)))
(let ((.def_340 (not .def_339)))
(let ((.def_575 (and .def_340 .def_574)))
(let ((.def_337 (= .def_106 b1566)))
(let ((.def_338 (not .def_337)))
(let ((.def_576 (and .def_338 .def_575)))
(let ((.def_335 (= .def_88 b1547)))
(let ((.def_336 (not .def_335)))
(let ((.def_577 (and .def_336 .def_576)))
(let ((.def_333 (= .def_70 b1528)))
(let ((.def_334 (not .def_333)))
(let ((.def_578 (and .def_334 .def_577)))
(let ((.def_331 (= .def_52 b1509)))
(let ((.def_332 (not .def_331)))
(let ((.def_579 (and .def_332 .def_578)))
(let ((.def_583 (and .def_579 .def_582)))
(let ((.def_586 (and .def_583 .def_585)))
(let ((.def_589 (and .def_586 .def_588)))
(let ((.def_329 (= .def_327 b1838)))
(let ((.def_330 (not .def_329)))
(let ((.def_590 (and .def_330 .def_589)))
(let ((.def_594 (and .def_590 .def_593)))
(let ((.def_597 (and .def_594 .def_596)))
(let ((.def_600 (and .def_597 .def_599)))
(let ((.def_311 (= .def_309 b1859)))
(let ((.def_312 (not .def_311)))
(let ((.def_601 (and .def_312 .def_600)))
(let ((.def_605 (and .def_601 .def_604)))
(let ((.def_608 (and .def_605 .def_607)))
(let ((.def_611 (and .def_608 .def_610)))
(let ((.def_293 (= .def_291 b1880)))
(let ((.def_294 (not .def_293)))
(let ((.def_612 (and .def_294 .def_611)))
(let ((.def_616 (and .def_612 .def_615)))
(let ((.def_619 (and .def_616 .def_618)))
(let ((.def_622 (and .def_619 .def_621)))
(let ((.def_275 (= .def_273 b1901)))
(let ((.def_276 (not .def_275)))
(let ((.def_623 (and .def_276 .def_622)))
(let ((.def_627 (and .def_623 .def_626)))
(let ((.def_630 (and .def_627 .def_629)))
(let ((.def_633 (and .def_630 .def_632)))
(let ((.def_257 (= .def_255 b1922)))
(let ((.def_258 (not .def_257)))
(let ((.def_634 (and .def_258 .def_633)))
(let ((.def_638 (and .def_634 .def_637)))
(let ((.def_641 (and .def_638 .def_640)))
(let ((.def_644 (and .def_641 .def_643)))
(let ((.def_239 (= .def_237 b1943)))
(let ((.def_240 (not .def_239)))
(let ((.def_645 (and .def_240 .def_644)))
(let ((.def_649 (and .def_645 .def_648)))
(let ((.def_652 (and .def_649 .def_651)))
(let ((.def_655 (and .def_652 .def_654)))
(let ((.def_221 (= .def_219 b1964)))
(let ((.def_222 (not .def_221)))
(let ((.def_656 (and .def_222 .def_655)))
(let ((.def_660 (and .def_656 .def_659)))
(let ((.def_663 (and .def_660 .def_662)))
(let ((.def_666 (and .def_663 .def_665)))
(let ((.def_203 (= .def_201 b1985)))
(let ((.def_204 (not .def_203)))
(let ((.def_667 (and .def_204 .def_666)))
(let ((.def_671 (and .def_667 .def_670)))
(let ((.def_674 (and .def_671 .def_673)))
(let ((.def_677 (and .def_674 .def_676)))
(let ((.def_185 (= .def_183 b2006)))
(let ((.def_186 (not .def_185)))
(let ((.def_678 (and .def_186 .def_677)))
(let ((.def_682 (and .def_678 .def_681)))
(let ((.def_685 (and .def_682 .def_684)))
(let ((.def_688 (and .def_685 .def_687)))
(let ((.def_167 (= .def_165 b2027)))
(let ((.def_168 (not .def_167)))
(let ((.def_689 (and .def_168 .def_688)))
(let ((.def_693 (and .def_689 .def_692)))
(let ((.def_696 (and .def_693 .def_695)))
(let ((.def_699 (and .def_696 .def_698)))
(let ((.def_149 (= .def_147 b2048)))
(let ((.def_150 (not .def_149)))
(let ((.def_700 (and .def_150 .def_699)))
(let ((.def_704 (and .def_700 .def_703)))
(let ((.def_707 (and .def_704 .def_706)))
(let ((.def_710 (and .def_707 .def_709)))
(let ((.def_131 (= .def_129 b2069)))
(let ((.def_132 (not .def_131)))
(let ((.def_711 (and .def_132 .def_710)))
(let ((.def_715 (and .def_711 .def_714)))
(let ((.def_718 (and .def_715 .def_717)))
(let ((.def_721 (and .def_718 .def_720)))
(let ((.def_113 (= .def_111 b2090)))
(let ((.def_114 (not .def_113)))
(let ((.def_722 (and .def_114 .def_721)))
(let ((.def_726 (and .def_722 .def_725)))
(let ((.def_729 (and .def_726 .def_728)))
(let ((.def_732 (and .def_729 .def_731)))
(let ((.def_95 (= .def_93 b2111)))
(let ((.def_96 (not .def_95)))
(let ((.def_733 (and .def_96 .def_732)))
(let ((.def_737 (and .def_733 .def_736)))
(let ((.def_740 (and .def_737 .def_739)))
(let ((.def_743 (and .def_740 .def_742)))
(let ((.def_77 (= .def_75 b2132)))
(let ((.def_78 (not .def_77)))
(let ((.def_744 (and .def_78 .def_743)))
(let ((.def_748 (and .def_744 .def_747)))
(let ((.def_751 (and .def_748 .def_750)))
(let ((.def_754 (and .def_751 .def_753)))
(let ((.def_59 (= .def_57 b2153)))
(let ((.def_60 (not .def_59)))
(let ((.def_755 (and .def_60 .def_754)))
(let ((.def_759 (and .def_755 .def_758)))
(let ((.def_762 (and .def_759 .def_761)))
(let ((.def_765 (and .def_762 .def_764)))
(let ((.def_41 (= .def_39 b2172)))
(let ((.def_42 (not .def_41)))
(let ((.def_766 (and .def_42 .def_765)))
(let ((.def_769 (and .def_766 .def_768)))
(let ((.def_772 (and .def_769 .def_771)))
(let ((.def_28 (= .def_26 b2181)))
(let ((.def_29 (not .def_28)))
(let ((.def_773 (and .def_29 .def_772)))
.def_773)))))))))))))))))))))))))))))))))))))))))))))))))))))))))))))))))))))))))))))))))))))))))))))))))))))))))))))))))))))))))))))))))))))))))))))))))))))))))))))))))))))))))))))))))))))))))))))))))))))))))))))))))))))))))))))))))))))))))))))))))))))))))))))))))))))))))))))))))))))))))))))))))))))))))))))))))))))))))))))))))))))))))))))))))))))))))))))))))))))))))))))))))))))))))))))))))))))))))))))))))))))))))))))))))))))))))))))))))))))))))))))))))))))))))))))))))))))))))))))))))))))))))))))))))))))))))))))))))))))))))))))))))))))))))))))))))))))))))))))))))))))))))))))))))))))))))))))))))))))))))))))))))))))))))))))))))))))))))))))))))))))))))))))))))))))))))))))))))))))))))))))))))))))))))))))))
(check-sat)
